09-routing/solutions/XSH-n20-k4-13.opt.sol
Route #1: 10 11 18 17 4 8 12 15
Route #2: 3 16 9
Route #3: 19 6 14 13 7
Route #4: 5 20 1 2
Cost 628
